c Digital Circuit Verification Problem
c Input variables: 1-8
c Internal gates: 9-20
c Output (critical): variable 20
c
c Circuit implements a complex logic function
c Gate 9: AND of inputs 1,2
c Gate 10: OR of inputs 3,4
c Gate 11: NOT of input 5
c Gate 12: AND of inputs 6,7
c Gate 13: XOR of inputs 1,8
c Gate 14: AND of gates 9,10
c Gate 15: OR of gates 11,12
c Gate 16: AND of gates 13,14
c Gate 17: OR of gates 15,16
c Gate 18: NOT of gate 17
c Gate 19: AND of inputs 2,8
c Gate 20: OR of gates 18,19 (OUTPUT)
c
p cnf 20 42
c Gate 9 = 1 AND 2
-1 -2 9 0
1 -9 0
2 -9 0
c Gate 10 = 3 OR 4
3 4 -10 0
-3 10 0
-4 10 0
c Gate 11 = NOT 5
-5 -11 0
5 11 0
c Gate 12 = 6 AND 7
-6 -7 12 0
6 -12 0
7 -12 0
c Gate 13 = 1 XOR 8
-1 -8 -13 0
1 8 -13 0
1 -8 13 0
-1 8 13 0
c Gate 14 = 9 AND 10
-9 -10 14 0
9 -14 0
10 -14 0
c Gate 15 = 11 OR 12
11 12 -15 0
-11 15 0
-12 15 0
c Gate 16 = 13 AND 14
-13 -14 16 0
13 -16 0
14 -16 0
c Gate 17 = 15 OR 16
15 16 -17 0
-15 17 0
-16 17 0
c Gate 18 = NOT 17
-17 -18 0
17 18 0
c Gate 19 = 2 AND 8
-2 -8 19 0
2 -19 0
8 -19 0
c Gate 20 = 18 OR 19 (OUTPUT)
18 19 -20 0
-18 20 0
-19 20 0
c Constraint: output must be TRUE
20 0